c Generated map
c Size: 13 * 13, weights in range: 1 to 10, walls: True, with ratio 0.1
c dim 3 of 3
c
p sp 169 251
c graph contains 169 nodes and 251 arcs
c
a 1 14 2
a 14 1 2
a 1 2 8
a 2 1 8
a 2 15 3
a 15 2 3
a 2 3 3
a 3 2 3
a 3 16 10
a 16 3 10
a 3 4 1
a 4 3 1
a 4 17 9
a 17 4 9
a 4 5 7
a 5 4 7
a 5 18 10
a 18 5 10
a 5 6 8
a 6 5 8
a 6 19 3
a 19 6 3
a 6 7 3
a 7 6 3
a 7 20 4
a 20 7 4
a 7 8 8
a 8 7 8
a 8 21 3
a 21 8 3
a 10 11 7
a 11 10 7
a 11 24 2
a 24 11 2
a 11 12 6
a 12 11 6
a 12 25 7
a 25 12 7
a 12 13 9
a 13 12 9
a 13 26 1
a 26 13 1
a 14 27 1
a 27 14 1
a 14 15 1
a 15 14 1
a 15 28 6
a 28 15 6
a 15 16 9
a 16 15 9
a 16 17 6
a 17 16 6
a 17 30 2
a 30 17 2
a 17 18 9
a 18 17 9
a 18 19 7
a 19 18 7
a 19 32 8
a 32 19 8
a 19 20 5
a 20 19 5
a 20 33 2
a 33 20 2
a 20 21 5
a 21 20 5
a 21 22 7
a 22 21 7
a 24 37 7
a 37 24 7
a 24 25 10
a 25 24 10
a 25 38 6
a 38 25 6
a 25 26 7
a 26 25 7
a 26 39 10
a 39 26 10
a 27 40 8
a 40 27 8
a 27 28 3
a 28 27 3
a 28 41 8
a 41 28 8
a 30 43 7
a 43 30 7
a 32 45 5
a 45 32 5
a 32 33 8
a 33 32 8
a 33 46 5
a 46 33 5
a 36 49 3
a 49 36 3
a 36 37 7
a 37 36 7
a 37 50 1
a 50 37 1
a 37 38 4
a 38 37 4
a 38 51 8
a 51 38 8
a 38 39 1
a 39 38 1
a 39 52 7
a 52 39 7
a 40 53 10
a 53 40 10
a 40 41 1
a 41 40 1
a 41 54 5
a 54 41 5
a 43 44 1
a 44 43 1
a 44 45 8
a 45 44 8
a 45 58 4
a 58 45 4
a 45 46 7
a 46 45 7
a 46 59 3
a 59 46 3
a 46 47 8
a 47 46 8
a 47 60 1
a 60 47 1
a 47 48 2
a 48 47 2
a 48 61 4
a 61 48 4
a 48 49 3
a 49 48 3
a 49 62 9
a 62 49 9
a 49 50 4
a 50 49 4
a 50 63 5
a 63 50 5
a 50 51 9
a 51 50 9
a 51 64 7
a 64 51 7
a 51 52 2
a 52 51 2
a 52 65 6
a 65 52 6
a 53 66 6
a 66 53 6
a 53 54 1
a 54 53 1
a 54 55 6
a 55 54 6
a 55 68 10
a 68 55 10
a 58 71 9
a 71 58 9
a 58 59 9
a 59 58 9
a 59 72 4
a 72 59 4
a 59 60 7
a 60 59 7
a 60 73 3
a 73 60 3
a 60 61 5
a 61 60 5
a 61 62 2
a 62 61 2
a 62 75 5
a 75 62 5
a 62 63 2
a 63 62 2
a 63 76 6
a 76 63 6
a 63 64 2
a 64 63 2
a 64 77 3
a 77 64 3
a 64 65 8
a 65 64 8
a 65 78 9
a 78 65 9
a 66 79 3
a 79 66 3
a 68 81 7
a 81 68 7
a 70 83 1
a 83 70 1
a 70 71 6
a 71 70 6
a 71 84 9
a 84 71 9
a 71 72 8
a 72 71 8
a 72 85 5
a 85 72 5
a 72 73 6
a 73 72 6
a 73 86 3
a 86 73 3
a 75 88 7
a 88 75 7
a 75 76 4
a 76 75 4
a 76 89 9
a 89 76 9
a 76 77 8
a 77 76 8
a 77 90 3
a 90 77 3
a 77 78 5
a 78 77 5
a 78 91 4
a 91 78 4
a 79 80 8
a 80 79 8
a 80 93 3
a 93 80 3
a 80 81 7
a 81 80 7
a 81 82 1
a 82 81 1
a 82 95 1
a 95 82 1
a 82 83 1
a 83 82 1
a 83 96 1
a 96 83 1
a 83 84 3
a 84 83 3
a 84 97 10
a 97 84 10
a 84 85 2
a 85 84 2
a 85 98 3
a 98 85 3
a 85 86 3
a 86 85 3
a 86 99 8
a 99 86 8
a 86 87 7
a 87 86 7
a 87 100 9
a 100 87 9
a 87 88 7
a 88 87 7
a 88 101 7
a 101 88 7
a 88 89 5
a 89 88 5
a 89 102 5
a 102 89 5
a 89 90 7
a 90 89 7
a 90 103 10
a 103 90 10
a 90 91 7
a 91 90 7
a 91 104 1
a 104 91 1
a 93 106 4
a 106 93 4
a 95 108 2
a 108 95 2
a 95 96 2
a 96 95 2
a 96 109 3
a 109 96 3
a 96 97 1
a 97 96 1
a 97 110 2
a 110 97 2
a 97 98 7
a 98 97 7
a 98 111 3
a 111 98 3
a 98 99 2
a 99 98 2
a 99 112 9
a 112 99 9
a 99 100 8
a 100 99 8
a 100 113 1
a 113 100 1
a 100 101 2
a 101 100 2
a 101 114 3
a 114 101 3
a 101 102 9
a 102 101 9
a 102 115 1
a 115 102 1
a 102 103 1
a 103 102 1
a 103 116 8
a 116 103 8
a 103 104 6
a 104 103 6
a 104 117 9
a 117 104 9
a 105 118 10
a 118 105 10
a 105 106 2
a 106 105 2
a 106 119 4
a 119 106 4
a 106 107 3
a 107 106 3
a 107 120 6
a 120 107 6
a 107 108 9
a 108 107 9
a 108 121 8
a 121 108 8
a 108 109 4
a 109 108 4
a 109 122 5
a 122 109 5
a 109 110 2
a 110 109 2
a 110 123 2
a 123 110 2
a 110 111 3
a 111 110 3
a 111 124 4
a 124 111 4
a 111 112 2
a 112 111 2
a 112 125 2
a 125 112 2
a 112 113 2
a 113 112 2
a 113 126 5
a 126 113 5
a 113 114 3
a 114 113 3
a 114 127 2
a 127 114 2
a 114 115 8
a 115 114 8
a 115 128 9
a 128 115 9
a 115 116 10
a 116 115 10
a 116 117 5
a 117 116 5
a 117 130 9
a 130 117 9
a 118 131 2
a 131 118 2
a 118 119 4
a 119 118 4
a 119 132 6
a 132 119 6
a 119 120 7
a 120 119 7
a 120 133 5
a 133 120 5
a 120 121 7
a 121 120 7
a 121 134 7
a 134 121 7
a 121 122 2
a 122 121 2
a 122 135 5
a 135 122 5
a 122 123 1
a 123 122 1
a 123 136 10
a 136 123 10
a 123 124 10
a 124 123 10
a 124 137 9
a 137 124 9
a 124 125 5
a 125 124 5
a 125 138 9
a 138 125 9
a 125 126 10
a 126 125 10
a 126 139 10
a 139 126 10
a 126 127 8
a 127 126 8
a 127 140 9
a 140 127 9
a 127 128 9
a 128 127 9
a 128 141 6
a 141 128 6
a 130 143 9
a 143 130 9
a 131 132 3
a 132 131 3
a 132 145 6
a 145 132 6
a 132 133 1
a 133 132 1
a 133 146 10
a 146 133 10
a 133 134 9
a 134 133 9
a 134 147 9
a 147 134 9
a 134 135 4
a 135 134 4
a 135 148 4
a 148 135 4
a 135 136 10
a 136 135 10
a 136 149 2
a 149 136 2
a 136 137 8
a 137 136 8
a 137 150 10
a 150 137 10
a 137 138 1
a 138 137 1
a 138 151 7
a 151 138 7
a 138 139 7
a 139 138 7
a 139 152 6
a 152 139 6
a 139 140 2
a 140 139 2
a 140 141 10
a 141 140 10
a 141 154 6
a 154 141 6
a 141 142 2
a 142 141 2
a 142 155 8
a 155 142 8
a 142 143 8
a 143 142 8
a 143 156 6
a 156 143 6
a 145 158 6
a 158 145 6
a 145 146 4
a 146 145 4
a 146 159 3
a 159 146 3
a 146 147 8
a 147 146 8
a 147 160 3
a 160 147 3
a 147 148 3
a 148 147 3
a 148 161 5
a 161 148 5
a 148 149 6
a 149 148 6
a 149 162 3
a 162 149 3
a 149 150 10
a 150 149 10
a 150 163 1
a 163 150 1
a 150 151 3
a 151 150 3
a 151 164 3
a 164 151 3
a 151 152 7
a 152 151 7
a 152 165 1
a 165 152 1
a 154 167 5
a 167 154 5
a 154 155 6
a 155 154 6
a 155 168 4
a 168 155 4
a 155 156 8
a 156 155 8
a 156 169 2
a 169 156 2
a 157 158 6
a 158 157 6
a 158 159 9
a 159 158 9
a 159 160 5
a 160 159 5
a 160 161 10
a 161 160 10
a 161 162 7
a 162 161 7
a 162 163 7
a 163 162 7
a 163 164 3
a 164 163 3
a 164 165 8
a 165 164 8
a 165 166 9
a 166 165 9
a 166 167 1
a 167 166 1
a 167 168 4
a 168 167 4
a 168 169 2
a 169 168 2
